n_tasks = 25;
duration = [ 2, 4, 9, 6, 5, 1, 9, 6, 3, 9, 5, 3, 3, 7, 3, 5, 1, 4, 3, 6, 9, 5, 3, 3, 7, ];

n_res = 3;
L = [ 10, 18, 17 ];

req = [| 1, 1, 3, 1, 3, 5, 1, 2, 10, 2, 10, 5, 4, 6, 4, 8, 9, 6, 7, 9, 5, 6, 4, 8, 9
       | 2, 1, 1, 6, 5, 5, 9, 1, 5, 7, 8, 4, 5, 9, 3, 5, 9, 7, 3, 9, 7, 8, 9, 6, 9
       | 2, 3, 5, 6, 4, 4, 8, 9, 4, 5, 4, 9, 5, 6, 6, 4, 6, 5, 5, 10, 9, 7, 9, 6, 6 |];
      
p = 32;     
pre =  [|1, 4
        |1, 7
        |1, 8
        |2, 5
        |2, 10
        |2, 18
        |3, 17
        |4, 6
        |4, 17
        |5, 9
        |6, 18
        |7, 12
        |7, 19
        |8, 12
        |8, 13
        |8, 15
        |9, 11
        |10, 17
        |11, 12
        |11, 13
        |11, 14
        |12, 16
        |15, 18
        |15, 25
        |16, 21
        |16, 23
        |18, 20
        |19, 21
        |19, 22
        |20, 24
        |22, 25
        |24, 25
        |];